Maximize

2045.0 x_0 + 340.0 x_1 + 1245.0 x_2 + 1337.0 x_3 + 1882.0 x_4 + 1647.0 x_5 + 2690.0 x_6 + 1820.0 x_7 + 2062.0 x_8 + 1245.0 x_9 + 390.0 x_10 + 1585.0 x_11 + 2625.0 x_12 + 1435.0 x_13 + 630.0 x_14


Subject To

a0: 0 x_0 + 102 x_0 + 0 x_0 + 77 x_0 + 100 x_0 + 0 x_0 + 120 x_0 + 0 x_0 + 0 x_1 + 0 x_1 + 0 x_1 + 0 x_1 + 60 x_1 + 0 x_1 + 0 x_1 + 0 x_1 + 0 x_2 + 153 x_2 + 0 x_2 + 0 x_2 + 0 x_2 + 150 x_2 + 0 x_2 + 0 x_2 + 64 x_3 + 51 x_3 + 0 x_3 + 88 x_3 + 0 x_3 + 0 x_3 + 0 x_3 + 66 x_3 + 0 x_4 + 170 x_4 + 0 x_4 + 99 x_4 + 60 x_4 + 45 x_4 + 45 x_4 + 0 x_4 + 80 x_5 + 0 x_5 + 0 x_5 + 0 x_5 + 50 x_5 + 75 x_5 + 0 x_5 + 110 x_5 + 56 x_6 + 170 x_6 + 161 x_6 + 0 x_6 + 0 x_6 + 0 x_6 + 90 x_6 + 44 x_6 + 0 x_7 + 34 x_7 + 0 x_7 + 33 x_7 + 80 x_7 + 120 x_7 + 90 x_7 + 0 x_7 + 0 x_8 + 34 x_8 + 184 x_8 + 110 x_8 + 0 x_8 + 60 x_8 + 45 x_8 + 0 x_8 + 0 x_9 + 119 x_9 + 0 x_9 + 0 x_9 + 0 x_9 + 0 x_9 + 120 x_9 + 0 x_9 + 16 x_10 + 0 x_10 + 0 x_10 + 0 x_10 + 0 x_10 + 0 x_10 + 0 x_10 + 88 x_10 + 64 x_11 + 51 x_11 + 0 x_11 + 0 x_11 + 0 x_11 + 0 x_11 + 120 x_11 + 0 x_11 + 0 x_12 + 136 x_12 + 0 x_12 + 77 x_12 + 40 x_12 + 135 x_12 + 150 x_12 + 0 x_12 + 0 x_13 + 0 x_13 + 0 x_13 + 110 x_13 + 30 x_13 + 0 x_13 + 45 x_13 + 198 x_13 + 0 x_14 + 0 x_14 + 0 x_14 + 44 x_14 + 80 x_14 + 0 x_14 + 0 x_14 + 0 x_14 <= 1940
b0: 0 x_0 + 54 x_0 + 0 x_0 + 49 x_0 + 120 x_0 + 0 x_0 + 192 x_0 + 0 x_0 + 0 x_1 + 0 x_1 + 0 x_1 + 0 x_1 + 72 x_1 + 0 x_1 + 0 x_1 + 0 x_1 + 0 x_2 + 81 x_2 + 0 x_2 + 0 x_2 + 0 x_2 + 110 x_2 + 0 x_2 + 0 x_2 + 176 x_3 + 27 x_3 + 0 x_3 + 56 x_3 + 0 x_3 + 0 x_3 + 0 x_3 + 3 x_3 + 0 x_4 + 90 x_4 + 0 x_4 + 63 x_4 + 72 x_4 + 33 x_4 + 72 x_4 + 0 x_4 + 220 x_5 + 0 x_5 + 0 x_5 + 0 x_5 + 60 x_5 + 55 x_5 + 0 x_5 + 5 x_5 + 154 x_6 + 90 x_6 + 161 x_6 + 0 x_6 + 0 x_6 + 0 x_6 + 144 x_6 + 2 x_6 + 0 x_7 + 18 x_7 + 0 x_7 + 21 x_7 + 96 x_7 + 88 x_7 + 144 x_7 + 0 x_7 + 0 x_8 + 18 x_8 + 184 x_8 + 70 x_8 + 0 x_8 + 44 x_8 + 72 x_8 + 0 x_8 + 0 x_9 + 63 x_9 + 0 x_9 + 0 x_9 + 0 x_9 + 0 x_9 + 192 x_9 + 0 x_9 + 44 x_10 + 0 x_10 + 0 x_10 + 0 x_10 + 0 x_10 + 0 x_10 + 0 x_10 + 4 x_10 + 176 x_11 + 27 x_11 + 0 x_11 + 0 x_11 + 0 x_11 + 0 x_11 + 192 x_11 + 0 x_11 + 0 x_12 + 72 x_12 + 0 x_12 + 49 x_12 + 48 x_12 + 99 x_12 + 240 x_12 + 0 x_12 + 0 x_13 + 0 x_13 + 0 x_13 + 70 x_13 + 36 x_13 + 0 x_13 + 72 x_13 + 9 x_13 + 0 x_14 + 0 x_14 + 0 x_14 + 28 x_14 + 96 x_14 + 0 x_14 + 0 x_14 + 0 x_14 <= 1800
c0: x_0 <= 2
c1: x_1 <= 5
c2: x_2 <= 4
c3: x_3 <= 2
c4: x_4 <= 2
c5: x_5 <= 2
c6: x_6 <= 2
c7: x_7 <= 2
c8: x_8 <= 2
c9: x_9 <= 4
c10: x_10 <= 4
c11: x_11 <= 3
c12: x_12 <= 2
c13: x_13 <= 2
c14: x_14 <= 4





General

 x_0 x_1 x_2 x_3 x_4 x_5 x_6 x_7 x_8 x_9 x_10 x_11 x_12 x_13 x_14



End
